7109.24
44 44 69 44 173 69 77 44 44 44 69 47 107 44 44 107 44 107 107 77 69 44 44 173 44 44 173 107 44 69 44 69 69 107 44 69 107 69 44 69 173 44 69 107 44 44 173 44 163 107 189 173 173 69 44 69 115 123 107 107 107 107 107 44 69 107 44 173 69 69 44 44 107 69 44 44 44 107 69 107 107 44 77 189 107 107 44 69 44 107 173 69 173 69 69 77 69 69 77 173 69 69 107 44 69 69 173 107 44 44 69 107 69 69 69 69 44 44 69 107 44 163 69 69 69 69 69 189 44 69 107 44 189 107 44 69 44 44 44 44 107 107 107 44 69 69 173 44 173 44 107 69 173 44 69 44 44 44 44 107 69 173 69 69 69 44 44 44 69 44 69 69 69 173 77 69 107 69 189 69 69 69 107 44 69 107 69 173 44 69 69 69 189 44 44 107 107 173 107 69 
